p cnf 225 78
-8 0
-9 0
-2 10 0
-1 10 0
1 2 -10 0
-1 -2 11 0
1 -11 0
-8 11 0
8 2 -11 0
-8 -2 12 0
8 -12 0
-9 12 0
9 2 -12 0
-3 13 0
-10 13 0
10 3 -13 0
-10 -3 14 0
10 -14 0
-11 14 0
11 3 -14 0
-11 -3 15 0
11 -15 0
-12 15 0
12 3 -15 0
15 0
-17 0
-18 0
-4 19 0
-1 19 0
1 4 -19 0
-1 -4 20 0
1 -20 0
-17 20 0
17 4 -20 0
-17 -4 21 0
17 -21 0
-18 21 0
18 4 -21 0
-5 22 0
-19 22 0
19 5 -22 0
-19 -5 23 0
19 -23 0
-20 23 0
20 5 -23 0
-20 -5 24 0
20 -24 0
-21 24 0
21 5 -24 0
24 0
-26 0
-27 0
-4 28 0
-2 28 0
2 4 -28 0
-2 -4 29 0
2 -29 0
-26 29 0
26 4 -29 0
-26 -4 30 0
26 -30 0
-27 30 0
27 4 -30 0
-6 31 0
-28 31 0
28 6 -31 0
-28 -6 32 0
28 -32 0
-29 32 0
29 6 -32 0
-29 -6 33 0
29 -33 0
-30 33 0
30 6 -33 0
33 0
-35 0
-36 0
-5 37 0
-3 37 0
3 5 -37 0
-3 -5 38 0
3 -38 0
-35 38 0
35 5 -38 0
-35 -5 39 0
35 -39 0
-36 39 0
36 5 -39 0
-6 40 0
-37 40 0
37 6 -40 0
-37 -6 41 0
37 -41 0
-38 41 0
38 6 -41 0
-38 -6 42 0
38 -42 0
-39 42 0
39 6 -42 0
42 0
-44 0
-45 0
-46 0
-47 0
-48 0
-2 49 0
-1 49 0
1 2 -49 0
-1 -2 50 0
1 -50 0
-44 50 0
44 2 -50 0
-44 -2 51 0
44 -51 0
-45 51 0
45 2 -51 0
-45 -2 52 0
45 -52 0
-46 52 0
46 2 -52 0
-46 -2 53 0
46 -53 0
-47 53 0
47 2 -53 0
-47 -2 54 0
47 -54 0
-48 54 0
48 2 -54 0
-3 55 0
-49 55 0
49 3 -55 0
-49 -3 56 0
49 -56 0
-50 56 0
50 3 -56 0
-50 -3 57 0
50 -57 0
-51 57 0
51 3 -57 0
-51 -3 58 0
51 -58 0
-52 58 0
52 3 -58 0
-52 -3 59 0
52 -59 0
-53 59 0
53 3 -59 0
-53 -3 60 0
53 -60 0
-54 60 0
54 3 -60 0
-4 61 0
-55 61 0
55 4 -61 0
-55 -4 62 0
55 -62 0
-56 62 0
56 4 -62 0
-56 -4 63 0
56 -63 0
-57 63 0
57 4 -63 0
-57 -4 64 0
57 -64 0
-58 64 0
58 4 -64 0
-58 -4 65 0
58 -65 0
-59 65 0
59 4 -65 0
-59 -4 66 0
59 -66 0
-60 66 0
60 4 -66 0
-5 67 0
-61 67 0
61 5 -67 0
-61 -5 68 0
61 -68 0
-62 68 0
62 5 -68 0
-62 -5 69 0
62 -69 0
-63 69 0
63 5 -69 0
-63 -5 70 0
63 -70 0
-64 70 0
64 5 -70 0
-64 -5 71 0
64 -71 0
-65 71 0
65 5 -71 0
-65 -5 72 0
65 -72 0
-66 72 0
66 5 -72 0
-6 73 0
-67 73 0
67 6 -73 0
-67 -6 74 0
67 -74 0
-68 74 0
68 6 -74 0
-68 -6 75 0
68 -75 0
-69 75 0
69 6 -75 0
-69 -6 76 0
69 -76 0
-70 76 0
70 6 -76 0
-70 -6 77 0
70 -77 0
-71 77 0
71 6 -77 0
-71 -6 78 0
71 -78 0
-72 78 0
72 6 -78 0
-48 -2 0
-54 -3 0
-60 -4 0
-66 -5 0
-72 -6 0
